config:eval_tsp="2022-12-09 03:54:20"
config:arch=arch5
config:num_train_worker=6
config:num_sample_worker=2
config:sample_type=khop2
config:root_path=/nvme/samgraph/
config:dataset=mag240m-homo
config:pipeline=False
config:cache_policy=coll_cache_asymm_link
config:cache_percentage=0.01
config:num_epoch=4
config:batch_size=4000
config:num_hidden=256
config:max_sampling_jobs=1
config:max_copying_jobs=1
config:barriered_epoch=1
config:presample_epoch=2
config:omp_thread_num=6
config:unsupervised=False
config:amp=True
config:rolling=0
config:fanout=[25, 10]
config:lr=0.003
config:dropout=0.5
config:single_gpu=False
config:max_num_step=100000
config:validate_configs=False
config:report_acc=0
config:dataset_path=/nvme/samgraph/mag240m-homo
config:torch_thread_num=8
config:train_workers=['cuda:0', 'cuda:1', 'cuda:2', 'cuda:3', 'cuda:4', 'cuda:5']
config:sample_workers=['cuda:6', 'cuda:7']
config:num_fanout=2
config:num_layer=2
config:_run_mode=RunMode.FGNN
config:_log_level=warn
config:_profile_level=3
config:_empty_feat=25
config:_arch=5
config:_sample_type=5
config:_cache_policy=13
test_result:init:input_scale_factor=1.10111
Set parameter WLSAccessID
Set parameter WLSSecret
Set parameter LicenseID
Set parameter TimeLimit to value 200
Set parameter MIPGap to value 0.05
Set parameter GomoryPasses to value 0
Set parameter Aggregate to value 0
Set parameter LogFile to value "cppsolver.log"
Set parameter Threads to value 12
Academic license - for non-commercial use only - registered to xiaoniu.sxn@sjtu.edu.cn
Gurobi Optimizer version 9.5.2 build v9.5.2rc0 (linux64)
Thread count: 48 physical cores, 96 logical processors, using up to 12 threads
Academic license - for non-commercial use only - registered to xiaoniu.sxn@sjtu.edu.cn
Optimize a model with 115404 rows, 25307 columns and 285420 nonzeros
Model fingerprint: 0x3e8dd165
Variable types: 7 continuous, 25300 integer (25300 binary)
Coefficient statistics:
  Matrix range     [7e-04, 8e+02]
  Objective range  [1e+00, 1e+00]
  Bounds range     [1e+00, 1e+00]
  RHS range        [1e+00, 3e+02]
Presolve removed 91085 rows and 0 columns
Presolve time: 0.29s
Presolved: 24319 rows, 25307 columns, 98195 nonzeros
Variable types: 7 continuous, 25300 integer (25300 binary)
Found heuristic solution: objective 3225.5015515

Root relaxation: objective 1.404660e+03, 21072 iterations, 0.87 seconds (0.74 work units)

    Nodes    |    Current Node    |     Objective Bounds      |     Work
 Expl Unexpl |  Obj  Depth IntInf | Incumbent    BestBd   Gap | It/Node Time

     0     0 1404.65969    0 1201 3225.50155 1404.65969  56.5%     -    1s
H    0     0                    3078.1977957 1404.65969  54.4%     -    3s
H    0     0                    2005.7770270 1636.54581  18.4%     -    4s
     0     0 1636.54581    0  758 2005.77703 1636.54581  18.4%     -    4s
     0     0 1664.52517    0  685 2005.77703 1664.52517  17.0%     -    7s
     0     0 1738.90206    0  626 2005.77703 1738.90206  13.3%     -    7s
     0     0 1759.08931    0  610 2005.77703 1759.08931  12.3%     -    7s
     0     0 1762.84989    0  597 2005.77703 1762.84989  12.1%     -    7s
     0     0 1762.84989    0  667 2005.77703 1762.84989  12.1%     -    8s
     0     0 1791.05972    0  739 2005.77703 1791.05972  10.7%     -    8s
     0     0 1816.07109    0  843 2005.77703 1816.07109  9.46%     -    9s
     0     0 1847.89712    0  771 2005.77703 1847.89712  7.87%     -    9s
     0     0 1859.66751    0  775 2005.77703 1859.66751  7.28%     -    9s
     0     0 1865.75694    0  773 2005.77703 1865.75694  6.98%     -    9s
     0     0 1868.86087    0  770 2005.77703 1868.86087  6.83%     -    9s
     0     0 1869.36745    0  772 2005.77703 1869.36745  6.80%     -    9s
     0     0 1871.97751    0  755 2005.77703 1871.97751  6.67%     -    9s
     0     0 1872.27330    0  752 2005.77703 1872.27330  6.66%     -    9s
     0     0 1872.33531    0  760 2005.77703 1872.33531  6.65%     -    9s
     0     0 1872.44777    0  749 2005.77703 1872.44777  6.65%     -    9s
     0     0 1872.44777    0  753 2005.77703 1872.44777  6.65%     -   10s
     0     0 1908.05884    0  495 2005.77703 1908.05884  4.87%     -   10s

Cutting planes:
  MIR: 40
  Zero half: 33
  Mod-K: 286

Explored 1 nodes (43787 simplex iterations) in 10.49 seconds (9.19 work units)
Thread count was 12 (of 96 available processors)

Solution count 3: 2005.78 3078.2 3225.5 

Optimal solution found (tolerance 5.00e-02)
Best objective 2.005777027049e+03, best bound 1.908058841309e+03, gap 4.8718%
coll_cache:optimal_local_rate=0.264258,0.292229,0.30746,0.3429,0.215434,0.305612,
coll_cache:optimal_remote_rate=0.599689,0.571718,0.556486,0.521047,0.648512,0.558334,
coll_cache:optimal_cpu_rate=0.136053,0.136053,0.136053,0.136053,0.136053,0.136053,
z=2005.78
test_result:init:feat_nbytes=375030526464
test_result:init:cache_nbytes=3776342016
test_result:init:feat_nbytes=375030526464
test_result:init:cache_nbytes=3778266624
test_result:init:feat_nbytes=375030526464
test_result:init:cache_nbytes=3786590208
test_result:init:feat_nbytes=375030526464
test_result:init:cache_nbytes=3786708480
test_result:init:feat_nbytes=375030526464
test_result:init:cache_nbytes=3781220352
test_result:init:feat_nbytes=375030526464
test_result:init:cache_nbytes=3762530304
test_result:init:cache_nbytes=0
test_result:init:cache_nbytes=0
test_result:init:cache_nbytes=0
test_result:init:cache_nbytes=0
test_result:init:cache_nbytes=0
test_result:init:cache_nbytes=0
[Train  Worker 2/6] Started with PID 3308(Tesla V100-SXM2-32GB)
[Train  Worker 2] run train for 4 epochs with 282 steps
[Train  Worker 2] Avg Epoch Time 2.2120 | Train Total Time(Profiler) 0.6938 | Copy Time 1.5136
[Train  Worker 1/6] Started with PID 3305(Tesla V100-SXM2-32GB)
[Train  Worker 1] run train for 4 epochs with 282 steps
[Train  Worker 1] Avg Epoch Time 2.2120 | Train Total Time(Profiler) 0.6895 | Copy Time 1.5172
[Train  Worker 5/6] Started with PID 3317(Tesla V100-SXM2-32GB)
[Train  Worker 5] run train for 4 epochs with 282 steps
[Train  Worker 5] Avg Epoch Time 2.2120 | Train Total Time(Profiler) 1.2634 | Copy Time 0.9437
[Train  Worker 0/6] Started with PID 3303(Tesla V100-SXM2-32GB)
[Train  Worker 0] run train for 4 epochs with 282 steps
Epoch 00000 | Epoch Time 3.5769 | Total Train Time(Profiler) 2.5858 | Copy Time 0.9859
Epoch 00001 | Epoch Time 2.2237 | Total Train Time(Profiler) 1.2685 | Copy Time 0.9507
Epoch 00002 | Epoch Time 2.2069 | Total Train Time(Profiler) 1.2615 | Copy Time 0.9407
Epoch 00003 | Epoch Time 2.2054 | Total Train Time(Profiler) 1.2629 | Copy Time 0.9378
[Train  Worker 0] Avg Epoch Time 2.2120 | Train Total Time(Profiler) 1.2643 | Copy Time 0.9431
[Train  Worker 4/6] Started with PID 3315(Tesla V100-SXM2-32GB)
[Train  Worker 4] run train for 4 epochs with 282 steps
[Train  Worker 4] Avg Epoch Time 2.2120 | Train Total Time(Profiler) 0.6978 | Copy Time 1.5091
[Train  Worker 3/6] Started with PID 3311(Tesla V100-SXM2-32GB)
[Train  Worker 3] run train for 4 epochs with 282 steps
[Train  Worker 3] Avg Epoch Time 2.2120 | Train Total Time(Profiler) 0.7012 | Copy Time 1.5058
[Sample Worker 1/2] Started with PID 3302(Tesla V100-SXM2-32GB)
[Sample Worker 1] run sample for 4 epochs with 141 steps
[Sample Worker 1] Avg Sample Total Time 0.4702 | Sampler Total Time(Profiler) 0.4684
    [Step(average) Profiler Level 1 E3 S140]
        L1  sample           0.002649 | send           0.000690
        L1  recv             0.000000 | copy           0.000000 | convert time 0.000000 | train  0.000000
        L1  feature nbytes 0.00 Bytes | label nbytes 0.00 Bytes
        L1  id nbytes      0.00 Bytes | graph nbytes 0.00 Bytes
        L1  miss nbytes    0.00 Bytes | remote nbytes 0.00 Bytes
        L1  num nodes          575342 | num samples      744005
    [Step(average) Profiler Level 2 E3 S140]
        L2  shuffle     0.000271 | core sample  0.000666 | id remap        0.001596
        L2  graph copy  0.000000 | id copy      0.000000 | cache feat copy 0.000000
        L2  last layer sample time 0.000290 | size 33440.323877
    [Step(average) Profiler Level 3 E3 S140]
        L3  khop sample coo  0.000412 | khop sort coo      0.000000 | khop count edge     0.000037 | khop compact edge 0.000172
        L3  walk sample coo  0.000000 | walk topk total    0.000000 | walk topk step1     0.000000 | walk topk step2   0.000000
        L3  walk topk step3  0.000000 | walk topk step4    0.000000 | walk topk step5     0.000000
        L3  walk topk step6  0.000000 | walk topk step7    0.000000
        L3  remap unique     0.000000 | remap populate     0.001327 | remap mapnode       0.000000 | remap mapedge     0.000268
        L3  cache get_index  0.000000 | cache copy_index   0.000000 | cache extract_miss  0.000000
        L3  cache copy_miss  0.000000 | cache combine_miss 0.000000 | cache combine cache 0.000000 | cache combine remote 0.000000
        L3  label extract  0.000000
    [Init Profiler Level 1]
        L1  init     7.6344 | sampler init    21.8886 | trainer init 0.0000
    [Init Profiler Level 2]
        L2  load ds        10.6368 | init queue          10.0314
        L2  presample       6.4037 | build interal ds     2.4475
        L2  build cache     0.0000
    [Init Profiler Level 3]
        L3  load dataset: mmap     7.6295 | copy         3.0073
        L3  dist queue: alloc      0.0018 | pin         10.0296 | push     0.0000
        L3  presample: init        0.8224
        L3  presample: sample      1.4439 | copy         0.1155
        L3  presample: count       2.4773 | sort         0.6014
        L3  presample: reset       0.0008 | get rank     0.0529
        L3  internal: cuda ctx     2.1739 | cuda stream     0.2671
[Sample Worker 0/2] Started with PID 3301(Tesla V100-SXM2-32GB)
[Sample Worker 0] run sample for 4 epochs with 141 steps
[Sample Worker 0] Avg Sample Total Time 0.4723 | Sampler Total Time(Profiler) 0.4708
test_result:sample_time=0.3735
test_result:get_cache_miss_index_time=0.0000
test_result:enqueue_samples_time=0.0973
test_result:epoch_time:sample_total=0.4723
[CUDA] cuda0: usage: 11.51 GB
[SAM] cuda0 data alloc        : 0.00 Bytes
[SAM] cuda0 workspace         : 1.85 GB
[SAM] cuda0 workspace reserve : 941.70 MB
[SAM] cuda0 total             : 1.85 GB
    [Step(average) Profiler Level 1 E3 S281]
        L1  sample           0.000000 | send           0.000000
        L1  recv             0.001317 | copy           0.028139 | convert time 0.000412 | train  0.018409
        L1  feature nbytes  843.00 MB | label nbytes   31.25 KB
        L1  id nbytes      0.00 Bytes | graph nbytes 0.00 Bytes
        L1  miss nbytes     117.45 MB | remote nbytes  483.71 MB
        L1  num nodes               0 | num samples           0
    [Step(average) Profiler Level 2 E3 S281]
        L2  shuffle     0.000000 | core sample  0.000000 | id remap        0.000000
        L2  graph copy  0.000004 | id copy      0.000000 | cache feat copy 0.026818
        L2  last layer sample time 0.000000 | size 0.000000
    [Step(average) Profiler Level 3 E3 S281]
        L3  khop sample coo  0.000000 | khop sort coo      0.000000 | khop count edge     0.000000 | khop compact edge 0.000000
        L3  walk sample coo  0.000000 | walk topk total    0.000000 | walk topk step1     0.000000 | walk topk step2   0.000000
        L3  walk topk step3  0.000000 | walk topk step4    0.000000 | walk topk step5     0.000000
        L3  walk topk step6  0.000000 | walk topk step7    0.000000
        L3  remap unique     0.000000 | remap populate     0.000000 | remap mapnode       0.000000 | remap mapedge     0.000000
        L3  cache get_index  0.000467 | cache copy_index   0.000000 | cache extract_miss  0.000000
        L3  cache copy_miss  0.000000 | cache combine_miss 0.026112 | cache combine cache 0.000912 | cache combine remote 0.007952
        L3  label extract  0.000226
    [Init Profiler Level 1]
        L1  init     7.6344 | sampler init     0.0000 | trainer init 97.1171
    [Init Profiler Level 2]
        L2  load ds         7.6295 | init queue           9.8827
        L2  presample       0.0000 | build interal ds     2.1853
        L2  build cache    85.0424
    [Init Profiler Level 3]
        L3  load dataset: mmap     7.6295 | copy         0.0000
        L3  dist queue: alloc      0.0018 | pin          9.8809 | push     0.0000
        L3  presample: init        0.0000
        L3  presample: sample      0.0000 | copy         0.0000
        L3  presample: count       0.0000 | sort         0.0000
        L3  presample: reset       0.0000 | get rank     0.0000
        L3  internal: cuda ctx     2.1853 | cuda stream     0.0000
|===========================================================================|
|                  PyTorch CUDA memory summary, device ID 0                 |
|---------------------------------------------------------------------------|
|            CUDA OOMs: 0            |        cudaMalloc retries: 0         |
|===========================================================================|
|        Metric         | Cur Usage  | Peak Usage | Tot Alloc  | Tot Freed  |
|---------------------------------------------------------------------------|
| Allocated memory      |   27035 KB |  400037 KB |  217460 MB |  217434 MB |
|       from large pool |   18142 KB |  397208 KB |  215427 MB |  215409 MB |
|       from small pool |    8892 KB |   11215 KB |    2033 MB |    2024 MB |
|---------------------------------------------------------------------------|
| Active memory         |   27035 KB |  400037 KB |  217460 MB |  217434 MB |
|       from large pool |   18142 KB |  397208 KB |  215427 MB |  215409 MB |
|       from small pool |    8893 KB |   11215 KB |    2033 MB |    2024 MB |
|---------------------------------------------------------------------------|
| GPU reserved memory   |  485376 KB |  485376 KB |  485376 KB |       0 B  |
|       from large pool |  471040 KB |  471040 KB |  471040 KB |       0 B  |
|       from small pool |   14336 KB |   14336 KB |   14336 KB |       0 B  |
|---------------------------------------------------------------------------|
| Non-releasable memory |   63076 KB |  401635 KB |  189605 MB |  189543 MB |
|       from large pool |   61729 KB |  396966 KB |  187383 MB |  187323 MB |
|       from small pool |    1347 KB |    4673 KB |    2221 MB |    2220 MB |
|---------------------------------------------------------------------------|
| Allocations           |      42    |      57    |   22226    |   22184    |
|       from large pool |       7    |      18    |    9779    |    9772    |
|       from small pool |      35    |      41    |   12447    |   12412    |
|---------------------------------------------------------------------------|
| Active allocs         |      43    |      57    |   22226    |   22183    |
|       from large pool |       7    |      18    |    9779    |    9772    |
|       from small pool |      36    |      41    |   12447    |   12411    |
|---------------------------------------------------------------------------|
| GPU reserved segments |      14    |      14    |      14    |       0    |
|       from large pool |       7    |       7    |       7    |       0    |
|       from small pool |       7    |       7    |       7    |       0    |
|---------------------------------------------------------------------------|
| Non-releasable allocs |      16    |      27    |   10614    |   10598    |
|       from large pool |       3    |      13    |    5966    |    5963    |
|       from small pool |      13    |      19    |    4648    |    4635    |
|---------------------------------------------------------------------------|
| Oversize allocations  |       0    |       0    |       0    |       0    |
|---------------------------------------------------------------------------|
| Oversize GPU segments |       0    |       0    |       0    |       0    |
|===========================================================================|

test_result:epoch_time:copy_time=0.9431
test_result:convert_time=0.0189
test_result:train_time=1.2454
test_result:epoch_time:train_total=1.2643
test_result:cache_percentage=0.0100
test_result:cache_hit_rate=1.0000
test_result:run_time=12.1429
